c read Graph
c width = 141
c time = 76 ms
c width = 15
c time = 148 ms
c width = 14
c time = 378 ms
c width = 13
c time = 1044 ms
c width = 12
c time = 1094 ms
c width = 12
c time = 4974 ms
s td 140 13 154
b 1 1 2 15
b 2 2 3 15 16
b 3 12 13 27 28
b 4 3 15 16 29
b 5 12 27 28 42
b 6 113 127 128 142
b 7 126 139 140 153
b 8 113 128 142 143
b 9 126 139 152 153
b 10 3 4 5 18
b 11 3 5 17 18 30 43
b 12 5 17 18 30 32 43 45
b 13 5 18 30 32 43 45 58
b 14 5 18 32 43 45 58 71
b 15 5 18 20 32 33 45 58 71
b 16 5 20 32 33 45 47 58 60 71
b 17 5 20 33 45 47 58 60 71 73
b 18 45 58 59 60 73
b 19 5 20 33 47 58 60 71 73 86
b 20 58 71 72 73 86
b 21 32 45 46 47 60
b 22 5 18 19 20 33
b 23 43 57 58 71
b 24 30 43 44 45 58
b 25 17 30 31 32 45
b 26 3 17 29 30 43
b 27 3 16 17 29 30
b 28 20 33 34 35 48
b 29 71 73 86 88 103 116 118 131 146
b 30 5 20 35 48 62 75 88 90 103 118 131 146
b 31 5 20 33 35 48 62 75 88 103 118 131 146
b 32 5 20 33 47 48 62 75 88 103 118 131 146
b 33 5 20 33 47 60 62 75 88 103 118 131 146
b 34 5 20 33 47 60 71 73 86 88 103 118 131 146
b 35 5 20 33 47 60 73 75 88 103 118 131 146
b 36 5 20 33 47 60 73 86 88 103 118 131 146
b 37 60 73 74 75 88
b 38 75 88 89 90 103
b 39 47 60 61 62 75
b 40 5 20 35 48 62 75 77 90 103 118 131 146
b 41 5 20 35 48 62 63 77 90 103 118 131 146
b 42 5 20 35 48 63 77 90 103 105 118 131 146
b 43 5 20 35 48 63 77 90 92 105 118 131 146
b 44 5 20 35 48 50 63 77 92 105 118 131 146
b 45 5 9 20 22 35 50 63 77 92 105 118 131 146
b 46 5 7 9 20 22 35
b 47 7 8 9 22
b 48 7 20 21 22 35
b 49 5 6 7 20
b 50 9 22 35 37 50 63 77 92 105 118 131 146
b 51 9 22 37 50 63 77 78 92 105 118 131 146
b 52 9 22 37 50 63 65 78 92 105 118 131 146
b 53 9 22 37 50 65 78 92 105 118 131 133 146
b 54 9 22 37 50 65 78 92 105 118 120 133 146
b 55 9 22 24 37 50 65 78 92 105 120 133 146
b 56 9 24 37 50 52 65 78 92 105 120 133 146
b 57 9 24 37 39 52 65 78 92 105 120 133 146
b 58 9 24 39 52 65 78 92 105 107 120 133 146
b 59 9 24 39 52 65 78 92 93 107 120 133 146
b 60 9 24 39 52 65 78 80 93 107 120 133 146
b 61 9 24 39 52 65 67 80 93 107 120 133 146
b 62 9 24 39 52 54 67 80 93 107 120 133 146
b 63 9 24 39 54 67 69 80 84 93 107 120 133 146
b 64 54 67 69 80 82 84 93 107 120 133 146
b 65 67 69 80 82 84 93 95 107 120 133 146
b 66 69 80 82 84 93 95 107 108 120 133 146
b 67 69 82 84 95 107 108 120 133 135 146 150
b 68 69 82 84 95 107 108 120 122 135 150
b 69 107 120 121 122 135
b 70 69 82 84 95 97 108 122 135 150
b 71 69 82 83 84 97
b 72 82 84 95 97 108 110 122 135 150
b 73 82 95 96 97 110
b 74 84 95 97 108 110 122 123 135 150
b 75 84 97 110 122 123 135 137 150
b 76 84 97 110 112 123 137 150
b 77 84 97 98 112
b 78 97 110 112 123 125 137 150
b 79 110 112 123 125 137 138 150
b 80 112 125 137 138 150 152
b 81 137 150 151 152
b 82 112 125 126 138 152
b 83 125 126 138 139 152
b 84 110 123 124 125 138
b 85 97 110 111 112 125
b 86 122 135 136 137 150
b 87 95 108 109 110 123
b 88 120 133 135 146 148 150
b 89 135 148 149 150
b 90 120 133 134 135 148
b 91 133 146 147 148
b 92 80 93 94 95 108
b 93 67 80 81 82 95
b 94 54 67 68 69 82
b 95 9 24 39 54 56 69 84
b 96 56 69 70 84
b 97 9 11 24 39 54 56 69
b 98 9 10 11 24
b 99 11 24 39 41 54 56 69
b 100 41 54 55 56 69
b 101 11 24 26 39 41 54 56
b 102 11 26 41 42 56
b 103 11 12 26 41 42
b 104 12 26 27 41 42
b 105 11 24 25 26 39
b 106 26 39 40 41 54
b 107 39 52 53 54 67
b 108 52 65 66 67 80
b 109 65 78 79 80 93
b 110 92 105 106 107 120
b 111 24 37 38 39 52
b 112 37 50 51 52 65
b 113 9 22 23 24 37
b 114 105 118 119 120 133
b 115 118 131 132 133 146
b 116 50 63 64 65 78
b 117 22 35 36 37 50
b 118 35 48 49 50 63
b 119 77 90 91 92 105
b 120 90 103 104 105 118
b 121 62 75 76 77 90
b 122 103 116 117 118 131
b 123 71 73 86 88 101 103 116 131 146
b 124 73 86 87 88 101
b 125 88 101 102 103 116
b 126 71 86 101 116 131 144 146
b 127 131 144 145 146
b 128 71 86 99 101 116 131 144
b 129 71 85 86 99
b 130 86 99 101 116 129 131 144
b 131 86 99 101 114 116 129 144
b 132 101 114 115 116 129
b 133 86 99 100 101 114
b 134 99 114 129 143 144
b 135 99 113 114 129 143
b 136 113 114 128 129 143
b 137 116 129 130 131 144
b 138 140 153 154
b 139 127 141 142
b 140 13 14 28
1 2
2 4
3 140
3 5
4 27
5 104
6 139
6 8
7 138
7 9
8 136
9 83
10 11
11 26
11 12
12 25
12 13
13 24
13 14
14 23
14 15
15 22
15 16
16 21
16 17
17 19
17 18
19 34
19 20
26 27
28 31
29 123
29 122
29 34
30 40
30 38
30 31
31 32
32 33
33 39
33 35
34 36
35 37
35 36
40 41
40 121
41 42
42 120
42 43
43 119
43 44
44 118
44 45
45 50
45 46
46 48
46 49
46 47
50 117
50 51
51 52
52 116
52 53
53 115
53 54
54 114
54 55
55 113
55 56
56 112
56 57
57 111
57 58
58 110
58 59
59 60
60 109
60 61
61 108
61 62
62 107
62 63
63 95
63 64
64 94
64 65
65 93
65 66
66 92
66 67
67 88
67 68
68 69
68 70
70 71
70 72
72 74
72 73
74 75
74 87
75 86
75 76
76 77
76 78
78 85
78 79
79 84
79 80
80 82
80 81
82 83
88 91
88 90
88 89
95 96
95 97
97 98
97 99
99 100
99 101
101 105
101 106
101 102
102 103
103 104
123 124
123 125
123 126
126 127
126 128
128 129
128 130
130 137
130 131
131 134
131 133
131 132
134 135
135 136
